NAME: random-59-24822
TYPE: TSP
COMMENT: size=59 seed=24822
DIMENSION: 120
EDGE_WEIGHT_TYPE: EUC_2D
NODE_COORD_SECTION
+0 354 223
-0 354 223
+1 532 139
-1 119 766
+2 639 398
-2 887 506
+3 402 398
-3 745 710
+4 421 661
-4 981 691
+5 852 509
-5 305 589
+6 379 813
-6 924 59
+7 477 982
-7 769 379
+8 306 308
-8 483 217
+9 897 53
-9 385 866
+10 117 348
-10 807 939
+11 33 202
-11 750 682
+12 925 150
-12 647 640
+13 382 487
-13 797 729
+14 756 305
-14 164 825
+15 99 71
-15 973 135
+16 392 299
-16 12 332
+17 741 916
-17 40 237
+18 551 432
-18 627 492
+19 807 371
-19 756 572
+20 974 451
-20 767 886
+21 477 268
-21 32 206
+22 946 724
-22 700 965
+23 446 224
-23 360 546
+24 36 125
-24 488 798
+25 430 76
-25 499 994
+26 309 993
-26 195 794
+27 566 757
-27 287 504
+28 435 327
-28 0 9
+29 369 818
-29 916 325
+30 794 549
-30 390 475
+31 141 203
-31 726 775
+32 902 757
-32 972 335
+33 447 280
-33 802 134
+34 902 950
-34 537 386
+35 371 477
-35 448 835
+36 23 918
-36 640 551
+37 444 57
-37 838 724
+38 274 392
-38 360 813
+39 743 965
-39 700 921
+40 409 157
-40 325 825
+41 148 761
-41 698 93
+42 706 900
-42 140 867
+43 697 814
-43 107 984
+44 293 307
-44 73 687
+45 745 152
-45 471 536
+46 809 196
-46 116 503
+47 530 144
-47 409 670
+48 576 559
-48 383 917
+49 266 907
-49 603 854
+50 221 280
-50 602 82
+51 714 823
-51 269 583
+52 69 115
-52 761 208
+53 616 509
-53 492 781
+54 51 455
-54 272 719
+55 899 439
-55 390 26
+56 398 866
-56 697 19
+57 441 878
-57 460 796
+58 121 463
-58 444 179
+59 751 393
-59 107 340
PRECEDENCE_SECTION
+0 -0
+1 -1
+2 -2
+3 -3
+4 -4
+5 -5
+6 -6
+7 -7
+8 -8
+9 -9
+10 -10
+11 -11
+12 -12
+13 -13
+14 -14
+15 -15
+16 -16
+17 -17
+18 -18
+19 -19
+20 -20
+21 -21
+22 -22
+23 -23
+24 -24
+25 -25
+26 -26
+27 -27
+28 -28
+29 -29
+30 -30
+31 -31
+32 -32
+33 -33
+34 -34
+35 -35
+36 -36
+37 -37
+38 -38
+39 -39
+40 -40
+41 -41
+42 -42
+43 -43
+44 -44
+45 -45
+46 -46
+47 -47
+48 -48
+49 -49
+50 -50
+51 -51
+52 -52
+53 -53
+54 -54
+55 -55
+56 -56
+57 -57
+58 -58
+59 -59
EOF
